c nIsolatedPIs 0
c maxPI 32
p cnf 109 232
c gate 33 -15 31 0
-15 -33 0
31 -33 0
15 -31 33 0
c gate 34 15 -31 0
15 -34 0
-31 -34 0
-15 31 34 0
c gate 35 -33 -34 0
-33 -35 0
-34 -35 0
33 34 35 0
c gate 36 12 -28 0
12 -36 0
-28 -36 0
-12 28 36 0
c gate 37 11 -27 0
11 -37 0
-27 -37 0
-11 27 37 0
c gate 38 -36 -37 0
-36 -38 0
-37 -38 0
36 37 38 0
c gate 39 -10 26 0
-10 -39 0
26 -39 0
10 -26 39 0
c gate 40 -9 25 0
-9 -40 0
25 -40 0
9 -25 40 0
c gate 41 7 -23 0
7 -41 0
-23 -41 0
-7 23 41 0
c gate 42 6 -22 0
6 -42 0
-22 -42 0
-6 22 42 0
c gate 43 5 -21 0
5 -43 0
-21 -43 0
-5 21 43 0
c gate 44 -3 19 0
-3 -44 0
19 -44 0
3 -19 44 0
c gate 45 -2 18 0
-2 -45 0
18 -45 0
2 -18 45 0
c gate 46 -1 17 0
-1 -46 0
17 -46 0
1 -17 46 0
c gate 47 -45 -46 0
-45 -47 0
-46 -47 0
45 46 47 0
c gate 48 2 -18 0
2 -48 0
-18 -48 0
-2 18 48 0
c gate 49 3 -19 0
3 -49 0
-19 -49 0
-3 19 49 0
c gate 50 -48 -49 0
-48 -50 0
-49 -50 0
48 49 50 0
c gate 51 -47 50 0
-47 -51 0
50 -51 0
47 -50 51 0
c gate 52 -44 -51 0
-44 -52 0
-51 -52 0
44 51 52 0
c gate 53 4 -20 0
4 -53 0
-20 -53 0
-4 20 53 0
c gate 54 -52 -53 0
-52 -54 0
-53 -54 0
52 53 54 0
c gate 55 -4 20 0
-4 -55 0
20 -55 0
4 -20 55 0
c gate 56 -54 -55 0
-54 -56 0
-55 -56 0
54 55 56 0
c gate 57 -43 -56 0
-43 -57 0
-56 -57 0
43 56 57 0
c gate 58 -6 -22 0
-6 -58 0
-22 -58 0
6 22 58 0
c gate 59 6 22 0
6 -59 0
22 -59 0
-6 -22 59 0
c gate 60 -58 -59 0
-58 -60 0
-59 -60 0
58 59 60 0
c gate 61 -5 21 0
-5 -61 0
21 -61 0
5 -21 61 0
c gate 62 -60 -61 0
-60 -62 0
-61 -62 0
60 61 62 0
c gate 63 -57 62 0
-57 -63 0
62 -63 0
57 -62 63 0
c gate 64 -42 -63 0
-42 -64 0
-63 -64 0
42 63 64 0
c gate 65 -7 -23 0
-7 -65 0
-23 -65 0
7 23 65 0
c gate 66 7 23 0
7 -66 0
23 -66 0
-7 -23 66 0
c gate 67 -65 -66 0
-65 -67 0
-66 -67 0
65 66 67 0
c gate 68 -64 -67 0
-64 -68 0
-67 -68 0
64 67 68 0
c gate 69 -41 -68 0
-41 -69 0
-68 -69 0
41 68 69 0
c gate 70 8 24 0
8 -70 0
24 -70 0
-8 -24 70 0
c gate 71 -8 -24 0
-8 -71 0
-24 -71 0
8 24 71 0
c gate 72 -70 -71 0
-70 -72 0
-71 -72 0
70 71 72 0
c gate 73 -69 -72 0
-69 -73 0
-72 -73 0
69 72 73 0
c gate 74 8 -24 0
8 -74 0
-24 -74 0
-8 24 74 0
c gate 75 9 -25 0
9 -75 0
-25 -75 0
-9 25 75 0
c gate 76 -74 -75 0
-74 -76 0
-75 -76 0
74 75 76 0
c gate 77 -73 76 0
-73 -77 0
76 -77 0
73 -76 77 0
c gate 78 -40 -77 0
-40 -78 0
-77 -78 0
40 77 78 0
c gate 79 -10 -26 0
-10 -79 0
-26 -79 0
10 26 79 0
c gate 80 10 26 0
10 -80 0
26 -80 0
-10 -26 80 0
c gate 81 -79 -80 0
-79 -81 0
-80 -81 0
79 80 81 0
c gate 82 -78 -81 0
-78 -82 0
-81 -82 0
78 81 82 0
c gate 83 -39 -82 0
-39 -83 0
-82 -83 0
39 82 83 0
c gate 84 38 -83 0
38 -84 0
-83 -84 0
-38 83 84 0
c gate 85 14 -30 0
14 -85 0
-30 -85 0
-14 30 85 0
c gate 86 13 -29 0
13 -86 0
-29 -86 0
-13 29 86 0
c gate 87 -85 -86 0
-85 -87 0
-86 -87 0
85 86 87 0
c gate 88 84 87 0
84 -88 0
87 -88 0
-84 -87 88 0
c gate 89 35 -88 0
35 -89 0
-88 -89 0
-35 88 89 0
c gate 90 -11 -27 0
-11 -90 0
-27 -90 0
11 27 90 0
c gate 91 11 27 0
11 -91 0
27 -91 0
-11 -27 91 0
c gate 92 -90 -91 0
-90 -92 0
-91 -92 0
90 91 92 0
c gate 93 38 92 0
38 -93 0
92 -93 0
-38 -92 93 0
c gate 94 -13 -29 0
-13 -94 0
-29 -94 0
13 29 94 0
c gate 95 13 29 0
13 -95 0
29 -95 0
-13 -29 95 0
c gate 96 -94 -95 0
-94 -96 0
-95 -96 0
94 95 96 0
c gate 97 -12 28 0
-12 -97 0
28 -97 0
12 -28 97 0
c gate 98 -96 -97 0
-96 -98 0
-97 -98 0
96 97 98 0
c gate 99 -93 98 0
-93 -99 0
98 -99 0
93 -98 99 0
c gate 100 87 -99 0
87 -100 0
-99 -100 0
-87 99 100 0
c gate 101 -14 30 0
-14 -101 0
30 -101 0
14 -30 101 0
c gate 102 -33 -101 0
-33 -102 0
-101 -102 0
33 101 102 0
c gate 103 -100 102 0
-100 -103 0
102 -103 0
100 -102 103 0
c gate 104 -89 103 0
-89 -104 0
103 -104 0
89 -103 104 0
c gate 105 -16 -32 0
-16 -105 0
-32 -105 0
16 32 105 0
c gate 106 16 32 0
16 -106 0
32 -106 0
-16 -32 106 0
c gate 107 -105 -106 0
-105 -107 0
-106 -107 0
105 106 107 0
c gate 108 -34 -107 0
-34 -108 0
-107 -108 0
34 107 108 0
c gate 109 104 108 0
104 -109 0
108 -109 0
-104 -108 109 0
c PO
109 0
